b=1 type=0 x=1 y=28
b=2 type=1 x=82 y=1
b=3 type=2 x=2 y=76
b=4 type=5 x=65 y=1
b=5 type=6 x=89 y=14
b=6 type=7 x=1 y=26
b=7 type=10 x=95 y=1
b=8 type=11 x=130 y=1
b=9 type=13 x=118 y=1
b=10 type=16 x=2 y=16
b=11 type=18 x=105 y=1
b=12 type=20 x=1 y=63
----------
